\* sidsproblem *\
Minimize
OBJ: x__A_10_
Subject To
_C1: x__A_0_ >= 0
_C10: 4.50359962737e+15 x__A_9_ >= 4.43638172248e+15
_C11: x__A_10_ >= 0
_C12: x__B_0_ >= 0
_C13: x__B_1_ >= 0
_C14: 4.50359962737e+15 x__B_2_ >= 4.43638172248e+15
_C15: 4.50359962737e+15 x__B_3_ >= 4.43638172248e+15
_C16: 4.50359962737e+15 x__B_4_ >= 4.43638172248e+15
_C17: 4.50359962737e+15 x__B_5_ >= 4.43638172248e+15
_C18: 4.50359962737e+15 x__B_6_ >= 4.43638172248e+15
_C19: x__B_7_ >= 0
_C2: x__A_1_ >= 0
_C20: x__A_0_ + 3 x__A_1_ + 3 x__A_2_ + x__A_3_ - 8 x__B_0_ >= 7
_C21: x__A_0_ + 3 x__A_1_ + 3 x__A_2_ + x__A_3_ - 8 x__B_0_ <= 86
_C22: x__A_1_ + 3 x__A_2_ + 3 x__A_3_ + x__A_4_ - 8 x__B_1_ >= 7
_C23: x__A_1_ + 3 x__A_2_ + 3 x__A_3_ + x__A_4_ - 8 x__B_1_ <= 86
_C24: x__A_2_ + 3 x__A_3_ + 3 x__A_4_ + x__A_5_ - 8 x__B_2_ >= 7
_C25: x__A_2_ + 3 x__A_3_ + 3 x__A_4_ + x__A_5_ - 8 x__B_2_ <= 86
_C26: x__A_3_ + 3 x__A_4_ + 3 x__A_5_ + x__A_6_ - 8 x__B_3_ >= 7
_C27: x__A_3_ + 3 x__A_4_ + 3 x__A_5_ + x__A_6_ - 8 x__B_3_ <= 86
_C28: x__A_4_ + 3 x__A_5_ + 3 x__A_6_ + x__A_7_ - 8 x__B_4_ >= 7
_C29: x__A_4_ + 3 x__A_5_ + 3 x__A_6_ + x__A_7_ - 8 x__B_4_ <= 86
_C3: 4.50359962737e+15 x__A_2_ >= 4.43638172248e+15
_C30: x__A_5_ + 3 x__A_6_ + 3 x__A_7_ + x__A_8_ - 8 x__B_5_ >= 7
_C31: x__A_5_ + 3 x__A_6_ + 3 x__A_7_ + x__A_8_ - 8 x__B_5_ <= 86
_C32: x__A_6_ + 3 x__A_7_ + 3 x__A_8_ + x__A_9_ - 8 x__B_6_ >= 7
_C33: x__A_6_ + 3 x__A_7_ + 3 x__A_8_ + x__A_9_ - 8 x__B_6_ <= 86
_C34: x__A_10_ + x__A_7_ + 3 x__A_8_ + 3 x__A_9_ - 8 x__B_7_ >= 7
_C35: x__A_10_ + x__A_7_ + 3 x__A_8_ + 3 x__A_9_ - 8 x__B_7_ <= 86
_C36: x__A_0_ - x__B_0_ >= 0
_C37: x__A_0_ - x__B_0_ <= 0
_C38: 10 x__A_1_ - 3 x__B_0_ - 7 x__B_1_ >= 3
_C39: 10 x__A_1_ - 3 x__B_0_ - 7 x__B_1_ <= 24
_C4: 4.50359962737e+15 x__A_3_ >= 4.43638172248e+15
_C40: 15 x__A_2_ - x__B_0_ - 7 x__B_1_ - 7 x__B_2_ >= 8
_C41: 15 x__A_2_ - x__B_0_ - 7 x__B_1_ - 7 x__B_2_ <= 70
_C42: 120 x__A_3_ - x__B_0_ - 21 x__B_1_ - 63 x__B_2_ - 35 x__B_3_ >= 85
_C43: 120 x__A_3_ - x__B_0_ - 21 x__B_1_ - 63 x__B_2_ - 35 x__B_3_ <= 818
_C44: 30 x__A_4_ - x__B_2_ - 9 x__B_3_ - 15 x__B_4_ >= 25
_C45: 30 x__A_4_ - x__B_2_ - 9 x__B_3_ - 15 x__B_4_ <= 266
_C46: 12 x__A_5_ - x__B_4_ - 5 x__B_5_ >= 6
_C47: 12 x__A_5_ - x__B_4_ - 5 x__B_5_ <= 90
_C48: 6 x__A_6_ - x__B_6_ >= 1
_C49: 6 x__A_6_ - x__B_6_ <= 20
_C5: 4.50359962737e+15 x__A_4_ >= 4.43638172248e+15
_C50: x__A_7_ >= 0
_C51: x__A_7_ <= 0
_C52: x__A_8_ >= 0
_C53: x__A_8_ <= 0
_C54: x__A_9_ >= 0
_C55: x__A_9_ <= 0
_C56: x__A_10_ >= 0
_C57: x__A_10_ <= 0
_C6: 4.50359962737e+15 x__A_5_ >= 4.43638172248e+15
_C7: 4.50359962737e+15 x__A_6_ >= 4.43638172248e+15
_C8: 4.50359962737e+15 x__A_7_ >= 4.43638172248e+15
_C9: 4.50359962737e+15 x__A_8_ >= 4.43638172248e+15
End
